Route #1: 4 34 46 35 7 67 26 12 40 17
Route #2: 51 3 24 49 16 63 23 56 41 42 43 1 73 33
Route #3: 44 32 50 18 55 25 9 39 72 31 10 58
Route #4: 53 11 38 65 66 59 14 19 8
Route #5: 52 27 13 54 57 15 5 37 20 70 60 71 69 36 47 74
Route #6: 30 28 62 22 64 61 21 48 29 45
Route #7: 6 2 68 75
Cost 738